NAME          DCAP_2_4_3_500_SS352
ROWS
 N  OBJ
 L  CON1
 L  CON2
 L  CON3
 L  CON4
 L  CON5
 L  CON6
 L  CON7
 L  CON8
 L  CON9
 L  CON10
 L  CON11
 L  CON12
 E  CON13
 E  CON14
 E  CON15
 E  CON16
 E  CON17
 E  CON18
 E  CON19
 E  CON20
 E  CON21
 E  CON22
 E  CON23
 E  CON24
COLUMNS
    x[1,1]    OBJ       6.180167      CON1      1.000000    
    x[1,1]    CON7      -1.000000     CON8      -1.000000   
    x[1,1]    CON9      -1.000000   
    x[1,2]    OBJ       6.563535      CON2      1.000000    
    x[1,2]    CON8      -1.000000     CON9      -1.000000   
    x[1,3]    OBJ       7.443064      CON3      1.000000    
    x[1,3]    CON9      -1.000000   
    x[2,1]    OBJ       6.732585      CON4      1.000000    
    x[2,1]    CON10     -1.000000     CON11     -1.000000   
    x[2,1]    CON12     -1.000000   
    x[2,2]    OBJ       5.039546      CON5      1.000000    
    x[2,2]    CON11     -1.000000     CON12     -1.000000   
    x[2,3]    OBJ       6.054841      CON6      1.000000    
    x[2,3]    CON12     -1.000000   
    MARKER    'MARKER'                'INTORG'
    u[1,1]    OBJ       48.076654     CON1      -1.000000   
    u[1,2]    OBJ       20.066487     CON2      -1.000000   
    u[1,3]    OBJ       32.230043     CON3      -1.000000   
    u[2,1]    OBJ       49.996186     CON4      -1.000000   
    u[2,2]    OBJ       49.466655     CON5      -1.000000   
    u[2,3]    OBJ       27.484319     CON6      -1.000000   
    y[1,1,1]  OBJ       5.883833      CON7      1.041357    
    y[1,1,1]  CON13     1.000000    
    y[1,1,2]  OBJ       7.376588      CON8      1.260156    
    y[1,1,2]  CON14     1.000000    
    y[1,1,3]  OBJ       7.258240      CON9      0.848062    
    y[1,1,3]  CON15     1.000000    
    y[1,2,1]  OBJ       5.047966      CON7      0.742176    
    y[1,2,1]  CON16     1.000000    
    y[1,2,2]  OBJ       7.243506      CON8      0.898947    
    y[1,2,2]  CON17     1.000000    
    y[1,2,3]  OBJ       7.920161      CON9      0.824530    
    y[1,2,3]  CON18     1.000000    
    y[1,3,1]  OBJ       5.693987      CON7      0.677871    
    y[1,3,1]  CON19     1.000000    
    y[1,3,2]  OBJ       8.535525      CON8      0.659307    
    y[1,3,2]  CON20     1.000000    
    y[1,3,3]  OBJ       7.015754      CON9      1.209455    
    y[1,3,3]  CON21     1.000000    
    y[1,4,1]  OBJ       7.200644      CON7      1.189588    
    y[1,4,1]  CON22     1.000000    
    y[1,4,2]  OBJ       6.297505      CON8      0.966135    
    y[1,4,2]  CON23     1.000000    
    y[1,4,3]  OBJ       5.055717      CON9      1.243932    
    y[1,4,3]  CON24     1.000000    
    y[2,1,1]  OBJ       9.446953      CON10     1.041357    
    y[2,1,1]  CON13     1.000000    
    y[2,1,2]  OBJ       7.040628      CON11     1.260156    
    y[2,1,2]  CON14     1.000000    
    y[2,1,3]  OBJ       8.719733      CON12     0.848062    
    y[2,1,3]  CON15     1.000000    
    y[2,2,1]  OBJ       5.173424      CON10     0.742176    
    y[2,2,1]  CON16     1.000000    
    y[2,2,2]  OBJ       5.529772      CON11     0.898947    
    y[2,2,2]  CON17     1.000000    
    y[2,2,3]  OBJ       8.873555      CON12     0.824530    
    y[2,2,3]  CON18     1.000000    
    y[2,3,1]  OBJ       5.526138      CON10     0.677871    
    y[2,3,1]  CON19     1.000000    
    y[2,3,2]  OBJ       6.030206      CON11     0.659307    
    y[2,3,2]  CON20     1.000000    
    y[2,3,3]  OBJ       5.808859      CON12     1.209455    
    y[2,3,3]  CON21     1.000000    
    y[2,4,1]  OBJ       6.872615      CON10     1.189588    
    y[2,4,1]  CON22     1.000000    
    y[2,4,2]  OBJ       8.408183      CON11     0.966135    
    y[2,4,2]  CON23     1.000000    
    y[2,4,3]  OBJ       7.371021      CON12     1.243932    
    y[2,4,3]  CON24     1.000000    
    z[1,1]    OBJ       527.904514    CON13     1.000000    
    z[1,2]    OBJ       950.922741    CON14     1.000000    
    z[1,3]    OBJ       559.753983    CON15     1.000000    
    z[2,1]    OBJ       927.287391    CON16     1.000000    
    z[2,2]    OBJ       843.707868    CON17     1.000000    
    z[2,3]    OBJ       825.758489    CON18     1.000000    
    z[3,1]    OBJ       833.949743    CON19     1.000000    
    z[3,2]    OBJ       762.467918    CON20     1.000000    
    z[3,3]    OBJ       527.931703    CON21     1.000000    
    z[4,1]    OBJ       668.789497    CON22     1.000000    
    z[4,2]    OBJ       603.046930    CON23     1.000000    
    z[4,3]    OBJ       938.712314    CON24     1.000000    
    MARKER    'MARKER'                 'INTEND'
RHS
    RHS       CON1      -0.000000     CON2      -0.000000   
    RHS       CON3      -0.000000     CON4      -0.000000   
    RHS       CON5      -0.000000     CON6      -0.000000   
    RHS       CON7      -0.000000     CON8      -0.000000   
    RHS       CON9      -0.000000     CON10     -0.000000   
    RHS       CON11     -0.000000     CON12     -0.000000   
    RHS       CON13     1.000000      CON14     1.000000    
    RHS       CON15     1.000000      CON16     1.000000    
    RHS       CON17     1.000000      CON18     1.000000    
    RHS       CON19     1.000000      CON20     1.000000    
    RHS       CON21     1.000000      CON22     1.000000    
    RHS       CON23     1.000000      CON24     1.000000    
BOUNDS
 BV BOUND     u[1,1]  
 BV BOUND     u[1,2]  
 BV BOUND     u[1,3]  
 BV BOUND     u[2,1]  
 BV BOUND     u[2,2]  
 BV BOUND     u[2,3]  
 BV BOUND     y[1,1,1]
 BV BOUND     y[1,1,2]
 BV BOUND     y[1,1,3]
 BV BOUND     y[1,2,1]
 BV BOUND     y[1,2,2]
 BV BOUND     y[1,2,3]
 BV BOUND     y[1,3,1]
 BV BOUND     y[1,3,2]
 BV BOUND     y[1,3,3]
 BV BOUND     y[1,4,1]
 BV BOUND     y[1,4,2]
 BV BOUND     y[1,4,3]
 BV BOUND     y[2,1,1]
 BV BOUND     y[2,1,2]
 BV BOUND     y[2,1,3]
 BV BOUND     y[2,2,1]
 BV BOUND     y[2,2,2]
 BV BOUND     y[2,2,3]
 BV BOUND     y[2,3,1]
 BV BOUND     y[2,3,2]
 BV BOUND     y[2,3,3]
 BV BOUND     y[2,4,1]
 BV BOUND     y[2,4,2]
 BV BOUND     y[2,4,3]
 BV BOUND     z[1,1]  
 BV BOUND     z[1,2]  
 BV BOUND     z[1,3]  
 BV BOUND     z[2,1]  
 BV BOUND     z[2,2]  
 BV BOUND     z[2,3]  
 BV BOUND     z[3,1]  
 BV BOUND     z[3,2]  
 BV BOUND     z[3,3]  
 BV BOUND     z[4,1]  
 BV BOUND     z[4,2]  
 BV BOUND     z[4,3]  
ENDATA
